NAME:  test1
TYPE: AGTSP
COMMENT: gtsp tours
DIMENSION:  41
GTSP_SETS: 11
EDGE_WEIGHT_TYPE: EXPLICIT
EDGE_WEIGHT_FORMAT: FULL_MATRIX 
EDGE_WEIGHT_SECTION
999999	0	999999	999999	18800	18800	18792	999999	18806	18806	18798	999999	18796	18796	18788	999999	18808	18808	18808	18800	18817	18817	18817	18809	18805	18805	18797	999999	18829	18829	18829	18821	18800	18800	18792	999999	18818	18818	18818	18810	0
999999	999999	0	999999	18800	18800	18800	18792	18806	18806	18806	18798	18796	18796	18796	18788	18808	18808	18808	999999	18817	18817	18817	999999	18805	18805	18805	18797	18829	18829	18829	999999	18800	18800	18800	18792	18818	18818	18818	999999	0
999999	999999	999999	0	18800	18800	18800	18800	18806	18806	18806	18806	18796	18796	18796	18796	18808	18808	18808	18808	18817	18817	18817	18817	18805	18805	18805	18805	18829	18829	18829	18829	18800	18800	18800	18800	18818	18818	18818	18818	0
0	999999	999999	999999	18800	18792	999999	999999	18806	18798	999999	999999	18796	18788	999999	999999	18808	18808	18800	999999	18817	18817	18809	999999	18805	18797	999999	999999	18829	18829	18821	999999	18800	18792	999999	999999	18818	18818	18810	999999	0
18800	18800	18792	999999	999999	0	999999	999999	18808	18808	18808	18800	18808	18808	18808	18800	18796	18796	18788	999999	18829	18829	999999	999999	18795	18795	18787	999999	18835	18835	999999	999999	18796	18796	18788	999999	18824	18824	18824	18816	0
18800	18800	18800	18792	999999	999999	0	999999	18808	18808	18808	999999	18808	18808	18808	999999	18796	18796	18796	18788	18829	18829	18829	999999	18795	18795	18795	18787	18835	18835	18835	999999	18796	18796	18796	18788	18824	18824	18824	999999	0
18800	18800	18800	18800	999999	999999	999999	0	18808	18808	18808	18808	18808	18808	18808	18808	18796	18796	18796	18796	18829	18829	18829	18829	18795	18795	18795	18795	18835	18835	18835	18835	18796	18796	18796	18796	18824	18824	18824	18824	0
18800	18792	999999	999999	0	999999	999999	999999	18808	18808	18800	999999	18808	18808	18800	999999	18796	18788	999999	999999	18829	18829	18829	18821	18795	18787	999999	999999	18835	18835	18835	18827	18796	18788	999999	999999	18824	18824	18816	999999	0
18806	18806	18798	999999	18808	18808	18808	18800	999999	0	999999	999999	18814	18814	18814	18806	18817	18817	18817	18809	18830	18830	999999	999999	18804	18804	18796	999999	18847	18847	999999	999999	18798	18798	18790	999999	18837	18837	999999	999999	0
18806	18806	18806	18798	18808	18808	18808	999999	999999	999999	0	999999	18814	18814	18814	999999	18817	18817	18817	999999	18830	18830	18830	999999	18804	18804	18804	18796	18847	18847	18847	999999	18798	18798	18798	18790	18837	18837	18837	999999	0
18806	18806	18806	18806	18808	18808	18808	18808	999999	999999	999999	0	18814	18814	18814	18814	18817	18817	18817	18817	18830	18830	18830	18830	18804	18804	18804	18804	18847	18847	18847	18847	18798	18798	18798	18798	18837	18837	18837	18837	0
18806	18798	999999	999999	18808	18808	18800	999999	0	999999	999999	999999	18814	18814	18806	999999	18817	18817	18809	999999	18830	18830	18830	18822	18804	18796	999999	999999	18847	18847	18847	18839	18798	18790	999999	999999	18837	18837	18837	18829	0
18796	18796	18788	999999	18808	18808	18808	18800	18814	18814	18814	18806	999999	0	999999	999999	18815	18815	18815	18807	18807	18807	18799	999999	18815	18815	18815	18807	18820	18820	18820	18812	18810	18810	18810	18802	18810	18810	18810	18802	0
18796	18796	18796	18788	18808	18808	18808	999999	18814	18814	18814	999999	999999	999999	0	999999	18815	18815	18815	999999	18807	18807	18807	18799	18815	18815	18815	999999	18820	18820	18820	999999	18810	18810	18810	999999	18810	18810	18810	999999	0
18796	18796	18796	18796	18808	18808	18808	18808	18814	18814	18814	18814	999999	999999	999999	0	18815	18815	18815	18815	18807	18807	18807	18807	18815	18815	18815	18815	18820	18820	18820	18820	18810	18810	18810	18810	18810	18810	18810	18810	0
18796	18788	999999	999999	18808	18808	18800	999999	18814	18814	18806	999999	0	999999	999999	999999	18815	18815	18807	999999	18807	18799	999999	999999	18815	18815	18807	999999	18820	18820	18812	999999	18810	18810	18802	999999	18810	18810	18802	999999	0
18808	18808	18808	18800	18796	18796	18788	999999	18817	18817	18817	18809	18815	18815	18815	18807	999999	0	999999	999999	18836	18836	999999	999999	18800	18800	18792	999999	18837	18837	999999	999999	18805	18805	18797	999999	18825	18825	18825	18817	0
18808	18808	18808	999999	18796	18796	18796	18788	18817	18817	18817	999999	18815	18815	18815	999999	999999	999999	0	999999	18836	18836	18836	999999	18800	18800	18800	18792	18837	18837	18837	999999	18805	18805	18805	18797	18825	18825	18825	999999	0
18808	18808	18808	18808	18796	18796	18796	18796	18817	18817	18817	18817	18815	18815	18815	18815	999999	999999	999999	0	18836	18836	18836	18836	18800	18800	18800	18800	18837	18837	18837	18837	18805	18805	18805	18805	18825	18825	18825	18825	0
18808	18808	18800	999999	18796	18788	999999	999999	18817	18817	18809	999999	18815	18815	18807	999999	0	999999	999999	999999	18836	18836	18836	18828	18800	18792	999999	999999	18837	18837	18837	18829	18805	18797	999999	999999	18825	18825	18817	999999	0
18817	18817	18817	18809	18829	18829	999999	999999	18830	18830	999999	999999	18807	18807	18799	999999	18836	18836	999999	999999	999999	0	999999	999999	18835	18835	999999	999999	18816	18816	18816	18808	18830	18830	999999	999999	18812	18812	18812	18804	0
18817	18817	18817	999999	18829	18829	18829	999999	18830	18830	18830	999999	18807	18807	18807	18799	18836	18836	18836	999999	999999	999999	0	999999	18835	18835	18835	999999	18816	18816	18816	999999	18830	18830	18830	999999	18812	18812	18812	999999	0
18817	18817	18817	18817	18829	18829	18829	18829	18830	18830	18830	18830	18807	18807	18807	18807	18836	18836	18836	18836	999999	999999	999999	0	18835	18835	18835	18835	18816	18816	18816	18816	18830	18830	18830	18830	18812	18812	18812	18812	0
18817	18817	18809	999999	18829	18829	18829	18821	18830	18830	18830	18822	18807	18799	999999	999999	18836	18836	18836	18828	0	999999	999999	999999	18835	18835	18835	18827	18816	18816	18808	999999	18830	18830	18830	18822	18812	18812	18804	999999	0
18805	18805	18797	999999	18795	18795	18787	999999	18804	18804	18796	999999	18815	18815	18815	18807	18800	18800	18792	999999	18835	18835	999999	999999	999999	0	999999	999999	18844	18844	999999	999999	18793	18793	18785	999999	18832	18832	999999	999999	0
18805	18805	18805	18797	18795	18795	18795	18787	18804	18804	18804	18796	18815	18815	18815	999999	18800	18800	18800	18792	18835	18835	18835	999999	999999	999999	0	999999	18844	18844	18844	999999	18793	18793	18793	18785	18832	18832	18832	999999	0
18805	18805	18805	18805	18795	18795	18795	18795	18804	18804	18804	18804	18815	18815	18815	18815	18800	18800	18800	18800	18835	18835	18835	18835	999999	999999	999999	0	18844	18844	18844	18844	18793	18793	18793	18793	18832	18832	18832	18832	0
18805	18797	999999	999999	18795	18787	999999	999999	18804	18796	999999	999999	18815	18815	18807	999999	18800	18792	999999	999999	18835	18835	18835	18827	0	999999	999999	999999	18844	18844	18844	18836	18793	18785	999999	999999	18832	18832	18832	18824	0
18829	18829	18829	18821	18835	18835	999999	999999	18847	18847	999999	999999	18820	18820	18820	18812	18837	18837	999999	999999	18816	18816	18816	18808	18844	18844	999999	999999	999999	0	999999	999999	18842	18842	999999	999999	18798	18798	18790	999999	0
18829	18829	18829	999999	18835	18835	18835	999999	18847	18847	18847	999999	18820	18820	18820	999999	18837	18837	18837	999999	18816	18816	18816	999999	18844	18844	18844	999999	999999	999999	0	999999	18842	18842	18842	999999	18798	18798	18798	18790	0
18829	18829	18829	18829	18835	18835	18835	18835	18847	18847	18847	18847	18820	18820	18820	18820	18837	18837	18837	18837	18816	18816	18816	18816	18844	18844	18844	18844	999999	999999	999999	0	18842	18842	18842	18842	18798	18798	18798	18798	0
18829	18829	18821	999999	18835	18835	18835	18827	18847	18847	18847	18839	18820	18820	18812	999999	18837	18837	18837	18829	18816	18816	18808	999999	18844	18844	18844	18836	0	999999	999999	999999	18842	18842	18842	18834	18798	18790	999999	999999	0
18800	18800	18792	999999	18796	18796	18788	999999	18798	18798	18790	999999	18810	18810	18810	18802	18805	18805	18797	999999	18830	18830	999999	999999	18793	18793	18785	999999	18842	18842	999999	999999	999999	0	999999	999999	18830	18830	999999	999999	0
18800	18800	18800	18792	18796	18796	18796	18788	18798	18798	18798	18790	18810	18810	18810	999999	18805	18805	18805	18797	18830	18830	18830	999999	18793	18793	18793	18785	18842	18842	18842	999999	999999	999999	0	999999	18830	18830	18830	999999	0
18800	18800	18800	18800	18796	18796	18796	18796	18798	18798	18798	18798	18810	18810	18810	18810	18805	18805	18805	18805	18830	18830	18830	18830	18793	18793	18793	18793	18842	18842	18842	18842	999999	999999	999999	0	18830	18830	18830	18830	0
18800	18792	999999	999999	18796	18788	999999	999999	18798	18790	999999	999999	18810	18810	18802	999999	18805	18797	999999	999999	18830	18830	18830	18822	18793	18785	999999	999999	18842	18842	18842	18834	0	999999	999999	999999	18830	18830	18830	18822	0
18818	18818	18818	18810	18824	18824	18824	18816	18837	18837	999999	999999	18810	18810	18810	18802	18825	18825	18825	18817	18812	18812	18812	18804	18832	18832	999999	999999	18798	18798	18790	999999	18830	18830	999999	999999	999999	0	999999	999999	0
18818	18818	18818	999999	18824	18824	18824	999999	18837	18837	18837	999999	18810	18810	18810	999999	18825	18825	18825	999999	18812	18812	18812	999999	18832	18832	18832	999999	18798	18798	18798	18790	18830	18830	18830	999999	999999	999999	0	999999	0
18818	18818	18818	18818	18824	18824	18824	18824	18837	18837	18837	18837	18810	18810	18810	18810	18825	18825	18825	18825	18812	18812	18812	18812	18832	18832	18832	18832	18798	18798	18798	18798	18830	18830	18830	18830	999999	999999	999999	0	0
18818	18818	18810	999999	18824	18824	18816	999999	18837	18837	18837	18829	18810	18810	18802	999999	18825	18825	18817	999999	18812	18812	18804	999999	18832	18832	18832	18824	18798	18790	999999	999999	18830	18830	18830	18822	0	999999	999999	999999	0
18778	999999	999999	999999	18778	999999	999999	999999	18778	999999	999999	999999	18778	999999	999999	999999	18778	999999	999999	999999	18778	999999	999999	999999	18778	999999	999999	999999	18778	999999	999999	999999	18778	999999	999999	999999	18778	999999	999999	999999	999999
GTSP_SET_SECTION:
1 1 2 3 4 -1
2 5 6 7 8 -1
3 9 10 11 12 -1
4 13 14 15 16 -1
5 17 18 19 20 -1
6 21 22 23 24 -1
7 25 26 27 28 -1
8 29 30 31 32 -1
9 33 34 35 36 -1
10 37 38 39 40 -1
11 41
EOF